graphene {

  ### LAMMPS commands for initialization
  ### (These can be overridden later.)


  write_once("In Init") {
    atom_style full
  }

  write_once("Data Masses") {
    @atom:CA 12.010700
  }
write_once("Data Masses") {
    @atom:CC 12.010700
  }
write_once("Data Masses") {
    @atom:O2 15.999
  }
write_once("Data Masses") {
    @atom:H2 1.00784
  }



  write("Data Atoms") {
    $atom:CA_1	$mol:m1	@atom:CA	0	0.000000000	0.000000000	0.000000000
$atom:CA_2	$mol:m1	@atom:CA	0	-1.228024000	0.709000000	0.000000000
$atom:CA_3	$mol:m1	@atom:CA	0	-1.228024000	2.127000000	0.000000000
$atom:CA_4	$mol:m1	@atom:CA	0	0.000000000	2.836000000	0.000000000
$atom:CA_5	$mol:m1	@atom:CA	0	2.456048000	0.000000000	0.000000000
$atom:CA_6	$mol:m1	@atom:CA	0	1.228024000	0.709000000	0.000000000
$atom:CA_7	$mol:m1	@atom:CA	0	1.228024000	2.127000000	0.000000000
$atom:CA_8	$mol:m1	@atom:CA	0	2.456048000	2.836000000	0.000000000
$atom:CA_9	$mol:m1	@atom:CA	0	4.912096000	0.000000000	0.000000000
$atom:CA_10	$mol:m1	@atom:CA	0	3.684072000	0.709000000	0.000000000
$atom:CA_11	$mol:m1	@atom:CA	0	3.684072000	2.127000000	0.000000000
$atom:CA_12	$mol:m1	@atom:CA	0	4.912096000	2.836000000	0.000000000
$atom:CA_13	$mol:m1	@atom:CA	0	7.368144000	0.000000000	0.000000000
$atom:CA_14	$mol:m1	@atom:CA	0	6.140120000	0.709000000	0.000000000
$atom:CA_15	$mol:m1	@atom:CA	0	6.140120000	2.127000000	0.000000000
$atom:CA_16	$mol:m1	@atom:CA	0	7.368144000	2.836000000	0.000000000
$atom:CA_17	$mol:m1	@atom:CA	0	9.824192000	0.000000000	0.000000000
$atom:CA_18	$mol:m1	@atom:CA	0	8.596169000	0.709000000	0.000000000
$atom:CA_19	$mol:m1	@atom:CA	0	8.596169000	2.127000000	0.000000000
$atom:CA_20	$mol:m1	@atom:CA	0	9.824192000	2.836000000	0.000000000
$atom:CA_21	$mol:m1	@atom:CA	0	12.280240000	0.000000000	0.000000000
$atom:CA_22	$mol:m1	@atom:CA	0	11.052217000	0.709000000	0.000000000
$atom:CA_23	$mol:m1	@atom:CA	0	11.052217000	2.127000000	0.000000000
$atom:CA_24	$mol:m1	@atom:CA	0	12.280240000	2.836000000	0.000000000
$atom:CA_25	$mol:m1	@atom:CA	0	14.736288000	0.000000000	0.000000000
$atom:CA_26	$mol:m1	@atom:CA	0	13.508265000	0.709000000	0.000000000
$atom:CA_27	$mol:m1	@atom:CA	0	13.508265000	2.127000000	0.000000000
$atom:CA_28	$mol:m1	@atom:CA	0	14.736288000	2.836000000	0.000000000
$atom:CA_29	$mol:m1	@atom:CA	0	17.192337000	0.000000000	0.000000000
$atom:CA_30	$mol:m1	@atom:CA	0	15.964313000	0.709000000	0.000000000
$atom:CA_31	$mol:m1	@atom:CA	0	15.964313000	2.127000000	0.000000000
$atom:CA_32	$mol:m1	@atom:CA	0	17.192337000	2.836000000	0.000000000
$atom:CA_33	$mol:m1	@atom:CA	0	19.648384000	0.000000000	0.000000000
$atom:CA_34	$mol:m1	@atom:CA	0	18.420361000	0.709000000	0.000000000
$atom:CA_35	$mol:m1	@atom:CA	0	18.420361000	2.127000000	0.000000000
$atom:CA_36	$mol:m1	@atom:CA	0	19.648384000	2.836000000	0.000000000
$atom:CA_37	$mol:m1	@atom:CA	0	22.104433000	0.000000000	0.000000000
$atom:CA_38	$mol:m1	@atom:CA	0	20.876408000	0.709000000	0.000000000
$atom:CA_39	$mol:m1	@atom:CA	0	20.876408000	2.127000000	0.000000000
$atom:CA_40	$mol:m1	@atom:CA	0	22.104433000	2.836000000	0.000000000
$atom:CA_41	$mol:m1	@atom:CA	0	24.560480000	0.000000000	0.000000000
$atom:CA_42	$mol:m1	@atom:CA	0	23.332457000	0.709000000	0.000000000
$atom:CA_43	$mol:m1	@atom:CA	0	23.332457000	2.127000000	0.000000000
$atom:CA_44	$mol:m1	@atom:CA	0	24.560480000	2.836000000	0.000000000
$atom:CA_45	$mol:m1	@atom:CA	0	27.016529000	0.000000000	0.000000000
$atom:CA_46	$mol:m1	@atom:CA	0	25.788504000	0.709000000	0.000000000
$atom:CA_47	$mol:m1	@atom:CA	0	25.788504000	2.127000000	0.000000000
$atom:CA_48	$mol:m1	@atom:CA	0	27.016529000	2.836000000	0.000000000
$atom:CA_49	$mol:m1	@atom:CA	0	29.472576000	0.000000000	0.000000000
$atom:CA_50	$mol:m1	@atom:CA	0	28.244553000	0.709000000	0.000000000
$atom:CA_51	$mol:m1	@atom:CA	0	28.244553000	2.127000000	0.000000000
$atom:CA_52	$mol:m1	@atom:CA	0	29.472576000	2.836000000	0.000000000
$atom:CA_53	$mol:m1	@atom:CA	0	31.928625000	0.000000000	0.000000000
$atom:CA_54	$mol:m1	@atom:CA	0	30.700600000	0.709000000	0.000000000
$atom:CA_55	$mol:m1	@atom:CA	0	30.700600000	2.127000000	0.000000000
$atom:CA_56	$mol:m1	@atom:CA	0	31.928625000	2.836000000	0.000000000
$atom:CA_57	$mol:m1	@atom:CA	0	34.384674000	0.000000000	0.000000000
$atom:CA_58	$mol:m1	@atom:CA	0	33.156647000	0.709000000	0.000000000
$atom:CA_59	$mol:m1	@atom:CA	0	33.156647000	2.127000000	0.000000000
$atom:CA_60	$mol:m1	@atom:CA	0	34.384674000	2.836000000	0.000000000
$atom:CA_61	$mol:m1	@atom:CA	0	36.840721000	0.000000000	0.000000000
$atom:CA_62	$mol:m1	@atom:CA	0	35.612698000	0.709000000	0.000000000
$atom:CA_63	$mol:m1	@atom:CA	0	35.612698000	2.127000000	0.000000000
$atom:CA_64	$mol:m1	@atom:CA	0	36.840721000	2.836000000	0.000000000
$atom:CA_65	$mol:m1	@atom:CA	0	39.296768000	0.000000000	0.000000000
$atom:CA_66	$mol:m1	@atom:CA	0	38.068745000	0.709000000	0.000000000
$atom:CA_67	$mol:m1	@atom:CA	0	38.068745000	2.127000000	0.000000000
$atom:CA_68	$mol:m1	@atom:CA	0	39.296768000	2.836000000	0.000000000
$atom:CA_69	$mol:m1	@atom:CA	0	41.752815000	0.000000000	0.000000000
$atom:CA_70	$mol:m1	@atom:CA	0	40.524792000	0.709000000	0.000000000
$atom:CA_71	$mol:m1	@atom:CA	0	40.524792000	2.127000000	0.000000000
$atom:CA_72	$mol:m1	@atom:CA	0	41.752815000	2.836000000	0.000000000
$atom:CA_73	$mol:m1	@atom:CA	0	44.208866000	0.000000000	0.000000000
$atom:CA_74	$mol:m1	@atom:CA	0	42.980843000	0.709000000	0.000000000
$atom:CA_75	$mol:m1	@atom:CA	0	42.980843000	2.127000000	0.000000000
$atom:CA_76	$mol:m1	@atom:CA	0	44.208866000	2.836000000	0.000000000
$atom:CA_77	$mol:m1	@atom:CA	0	46.664913000	0.000000000	0.000000000
$atom:CA_78	$mol:m1	@atom:CA	0	45.436890000	0.709000000	0.000000000
$atom:CA_79	$mol:m1	@atom:CA	0	45.436890000	2.127000000	0.000000000
$atom:CA_80	$mol:m1	@atom:CA	0	46.664913000	2.836000000	0.000000000
$atom:CA_81	$mol:m1	@atom:CA	0	49.120960000	0.000000000	0.000000000
$atom:CA_82	$mol:m1	@atom:CA	0	47.892937000	0.709000000	0.000000000
$atom:CA_83	$mol:m1	@atom:CA	0	47.892937000	2.127000000	0.000000000
$atom:CA_84	$mol:m1	@atom:CA	0	49.120960000	2.836000000	0.000000000
$atom:CA_85	$mol:m1	@atom:CA	0	51.577007000	0.000000000	0.000000000
$atom:CA_86	$mol:m1	@atom:CA	0	50.348984000	0.709000000	0.000000000
$atom:CA_87	$mol:m1	@atom:CA	0	50.348984000	2.127000000	0.000000000
$atom:CA_88	$mol:m1	@atom:CA	0	51.577007000	2.836000000	0.000000000
$atom:CA_89	$mol:m1	@atom:CA	0	54.033058000	0.000000000	0.000000000
$atom:CA_90	$mol:m1	@atom:CA	0	52.805035000	0.709000000	0.000000000
$atom:CA_91	$mol:m1	@atom:CA	0	52.805035000	2.127000000	0.000000000
$atom:CA_92	$mol:m1	@atom:CA	0	54.033058000	2.836000000	0.000000000
$atom:CA_93	$mol:m1	@atom:CA	0	56.489105000	0.000000000	0.000000000
$atom:CA_94	$mol:m1	@atom:CA	0	55.261082000	0.709000000	0.000000000
$atom:CA_95	$mol:m1	@atom:CA	0	55.261082000	2.127000000	0.000000000
$atom:CA_96	$mol:m1	@atom:CA	0	56.489105000	2.836000000	0.000000000
$atom:CA_97	$mol:m1	@atom:CA	0	58.945152000	0.000000000	0.000000000
$atom:CA_98	$mol:m1	@atom:CA	0	57.717129000	0.709000000	0.000000000
$atom:CA_99	$mol:m1	@atom:CA	0	57.717129000	2.127000000	0.000000000
$atom:CA_100	$mol:m1	@atom:CA	0	58.945152000	2.836000000	0.000000000
$atom:CA_101	$mol:m1	@atom:CA	0	61.401199000	0.000000000	0.000000000
$atom:CA_102	$mol:m1	@atom:CA	0	60.173176000	0.709000000	0.000000000
$atom:CA_103	$mol:m1	@atom:CA	0	60.173176000	2.127000000	0.000000000
$atom:CA_104	$mol:m1	@atom:CA	0	61.401199000	2.836000000	0.000000000
$atom:CA_105	$mol:m1	@atom:CA	0	63.857250000	0.000000000	0.000000000
$atom:CA_106	$mol:m1	@atom:CA	0	62.629227000	0.709000000	0.000000000
$atom:CA_107	$mol:m1	@atom:CA	0	62.629227000	2.127000000	0.000000000
$atom:CA_108	$mol:m1	@atom:CA	0	63.857250000	2.836000000	0.000000000
$atom:CA_109	$mol:m1	@atom:CA	0	66.313293000	0.000000000	0.000000000
$atom:CA_110	$mol:m1	@atom:CA	0	65.085274000	0.709000000	0.000000000
$atom:CA_111	$mol:m1	@atom:CA	0	65.085274000	2.127000000	0.000000000
$atom:CA_112	$mol:m1	@atom:CA	0	66.313293000	2.836000000	0.000000000
$atom:CA_113	$mol:m1	@atom:CA	0	68.769348000	0.000000000	0.000000000
$atom:CA_114	$mol:m1	@atom:CA	0	67.541321000	0.709000000	0.000000000
$atom:CA_115	$mol:m1	@atom:CA	0	67.541321000	2.127000000	0.000000000
$atom:CA_116	$mol:m1	@atom:CA	0	68.769348000	2.836000000	0.000000000
$atom:CA_117	$mol:m1	@atom:CA	0	0.000000000	4.254000000	0.000000000
$atom:CA_118	$mol:m1	@atom:CA	0	-1.228024000	4.963000000	0.000000000
$atom:CA_119	$mol:m1	@atom:CA	0	-1.228024000	6.381000000	0.000000000
$atom:CA_120	$mol:m1	@atom:CA	0	0.000000000	7.090000000	0.000000000
$atom:CA_121	$mol:m1	@atom:CA	0	2.456048000	4.254000000	0.000000000
$atom:CA_122	$mol:m1	@atom:CA	0	1.228024000	4.963000000	0.000000000
$atom:CA_123	$mol:m1	@atom:CA	0	1.228024000	6.381000000	0.000000000
$atom:CA_124	$mol:m1	@atom:CA	0	2.456048000	7.090000000	0.000000000
$atom:CA_125	$mol:m1	@atom:CA	0	4.912096000	4.254000000	0.000000000
$atom:CA_126	$mol:m1	@atom:CA	0	3.684072000	4.963000000	0.000000000
$atom:CA_127	$mol:m1	@atom:CA	0	3.684072000	6.381000000	0.000000000
$atom:CA_128	$mol:m1	@atom:CA	0	4.912096000	7.090000000	0.000000000
$atom:CA_129	$mol:m1	@atom:CA	0	7.368144000	4.254000000	0.000000000
$atom:CA_130	$mol:m1	@atom:CA	0	6.140120000	4.963000000	0.000000000
$atom:CA_131	$mol:m1	@atom:CA	0	6.140120000	6.381000000	0.000000000
$atom:CA_132	$mol:m1	@atom:CA	0	7.368144000	7.090000000	0.000000000
$atom:CA_133	$mol:m1	@atom:CA	0	9.824192000	4.254000000	0.000000000
$atom:CA_134	$mol:m1	@atom:CA	0	8.596169000	4.963000000	0.000000000
$atom:CA_135	$mol:m1	@atom:CA	0	8.596169000	6.381000000	0.000000000
$atom:CA_136	$mol:m1	@atom:CA	0	9.824192000	7.090000000	0.000000000
$atom:CA_137	$mol:m1	@atom:CA	0	12.280240000	4.254000000	0.000000000
$atom:CA_138	$mol:m1	@atom:CA	0	11.052217000	4.963000000	0.000000000
$atom:CA_139	$mol:m1	@atom:CA	0	11.052217000	6.381000000	0.000000000
$atom:CA_140	$mol:m1	@atom:CA	0	12.280240000	7.090000000	0.000000000
$atom:CA_141	$mol:m1	@atom:CA	0	14.736288000	4.254000000	0.000000000
$atom:CA_142	$mol:m1	@atom:CA	0	13.508265000	4.963000000	0.000000000
$atom:CA_143	$mol:m1	@atom:CA	0	13.508265000	6.381000000	0.000000000
$atom:CA_144	$mol:m1	@atom:CA	0	14.736288000	7.090000000	0.000000000
$atom:CA_145	$mol:m1	@atom:CA	0	17.192337000	4.254000000	0.000000000
$atom:CA_146	$mol:m1	@atom:CA	0	15.964313000	4.963000000	0.000000000
$atom:CA_147	$mol:m1	@atom:CA	0	15.964313000	6.381000000	0.000000000
$atom:CA_148	$mol:m1	@atom:CA	0	17.192337000	7.090000000	0.000000000
$atom:CA_149	$mol:m1	@atom:CA	0	19.648384000	4.254000000	0.000000000
$atom:CA_150	$mol:m1	@atom:CA	0	18.420361000	4.963000000	0.000000000
$atom:CA_151	$mol:m1	@atom:CA	0	18.420361000	6.381000000	0.000000000
$atom:CA_152	$mol:m1	@atom:CA	0	19.648384000	7.090000000	0.000000000
$atom:CA_153	$mol:m1	@atom:CA	0	22.104433000	4.254000000	0.000000000
$atom:CA_154	$mol:m1	@atom:CA	0	20.876408000	4.963000000	0.000000000
$atom:CA_155	$mol:m1	@atom:CA	0	20.876408000	6.381000000	0.000000000
$atom:CA_156	$mol:m1	@atom:CA	0	22.104433000	7.090000000	0.000000000
$atom:CA_157	$mol:m1	@atom:CA	0	24.560480000	4.254000000	0.000000000
$atom:CA_158	$mol:m1	@atom:CA	0	23.332457000	4.963000000	0.000000000
$atom:CA_159	$mol:m1	@atom:CA	0	23.332457000	6.381000000	0.000000000
$atom:CA_160	$mol:m1	@atom:CA	0	24.560480000	7.090000000	0.000000000
$atom:CA_161	$mol:m1	@atom:CA	0	27.016529000	4.254000000	0.000000000
$atom:CA_162	$mol:m1	@atom:CA	0	25.788504000	4.963000000	0.000000000
$atom:CA_163	$mol:m1	@atom:CA	0	25.788504000	6.381000000	0.000000000
$atom:CA_164	$mol:m1	@atom:CA	0	27.016529000	7.090000000	0.000000000
$atom:CA_165	$mol:m1	@atom:CA	0	29.472576000	4.254000000	0.000000000
$atom:CA_166	$mol:m1	@atom:CA	0	28.244553000	4.963000000	0.000000000
$atom:CA_167	$mol:m1	@atom:CA	0	28.244553000	6.381000000	0.000000000
$atom:CA_168	$mol:m1	@atom:CA	0	29.472576000	7.090000000	0.000000000
$atom:CA_169	$mol:m1	@atom:CA	0	31.928625000	4.254000000	0.000000000
$atom:CA_170	$mol:m1	@atom:CA	0	30.700600000	4.963000000	0.000000000
$atom:CA_171	$mol:m1	@atom:CA	0	30.700600000	6.381000000	0.000000000
$atom:CA_172	$mol:m1	@atom:CA	0	31.928625000	7.090000000	0.000000000
$atom:CA_173	$mol:m1	@atom:CA	0	34.384674000	4.254000000	0.000000000
$atom:CA_174	$mol:m1	@atom:CA	0	33.156647000	4.963000000	0.000000000
$atom:CA_175	$mol:m1	@atom:CA	0	33.156647000	6.381000000	0.000000000
$atom:CA_176	$mol:m1	@atom:CA	0	34.384674000	7.090000000	0.000000000
$atom:CA_177	$mol:m1	@atom:CA	0	36.840721000	4.254000000	0.000000000
$atom:CA_178	$mol:m1	@atom:CA	0	35.612698000	4.963000000	0.000000000
$atom:CA_179	$mol:m1	@atom:CA	0	35.612698000	6.381000000	0.000000000
$atom:CA_180	$mol:m1	@atom:CA	0	36.840721000	7.090000000	0.000000000
$atom:CA_181	$mol:m1	@atom:CA	0	39.296768000	4.254000000	0.000000000
$atom:CA_182	$mol:m1	@atom:CA	0	38.068745000	4.963000000	0.000000000
$atom:CA_183	$mol:m1	@atom:CA	0	38.068745000	6.381000000	0.000000000
$atom:CA_184	$mol:m1	@atom:CA	0	39.296768000	7.090000000	0.000000000
$atom:CA_185	$mol:m1	@atom:CA	0	41.752815000	4.254000000	0.000000000
$atom:CA_186	$mol:m1	@atom:CA	0	40.524792000	4.963000000	0.000000000
$atom:CA_187	$mol:m1	@atom:CA	0	40.524792000	6.381000000	0.000000000
$atom:CA_188	$mol:m1	@atom:CA	0	41.752815000	7.090000000	0.000000000
$atom:CA_189	$mol:m1	@atom:CA	0	44.208866000	4.254000000	0.000000000
$atom:CA_190	$mol:m1	@atom:CA	0	42.980843000	4.963000000	0.000000000
$atom:CA_191	$mol:m1	@atom:CA	0	42.980843000	6.381000000	0.000000000
$atom:CA_192	$mol:m1	@atom:CA	0	44.208866000	7.090000000	0.000000000
$atom:CA_193	$mol:m1	@atom:CA	0	46.664913000	4.254000000	0.000000000
$atom:CA_194	$mol:m1	@atom:CA	0	45.436890000	4.963000000	0.000000000
$atom:CA_195	$mol:m1	@atom:CA	0	45.436890000	6.381000000	0.000000000
$atom:CA_196	$mol:m1	@atom:CA	0	46.664913000	7.090000000	0.000000000
$atom:CA_197	$mol:m1	@atom:CA	0	49.120960000	4.254000000	0.000000000
$atom:CA_198	$mol:m1	@atom:CA	0	47.892937000	4.963000000	0.000000000
$atom:CA_199	$mol:m1	@atom:CA	0	47.892937000	6.381000000	0.000000000
$atom:CA_200	$mol:m1	@atom:CA	0	49.120960000	7.090000000	0.000000000
$atom:CA_201	$mol:m1	@atom:CA	0	51.577007000	4.254000000	0.000000000
$atom:CA_202	$mol:m1	@atom:CA	0	50.348984000	4.963000000	0.000000000
$atom:CA_203	$mol:m1	@atom:CA	0	50.348984000	6.381000000	0.000000000
$atom:CA_204	$mol:m1	@atom:CA	0	51.577007000	7.090000000	0.000000000
$atom:CA_205	$mol:m1	@atom:CA	0	54.033058000	4.254000000	0.000000000
$atom:CA_206	$mol:m1	@atom:CA	0	52.805035000	4.963000000	0.000000000
$atom:CA_207	$mol:m1	@atom:CA	0	52.805035000	6.381000000	0.000000000
$atom:CA_208	$mol:m1	@atom:CA	0	54.033058000	7.090000000	0.000000000
$atom:CA_209	$mol:m1	@atom:CA	0	56.489105000	4.254000000	0.000000000
$atom:CA_210	$mol:m1	@atom:CA	0	55.261082000	4.963000000	0.000000000
$atom:CA_211	$mol:m1	@atom:CA	0	55.261082000	6.381000000	0.000000000
$atom:CA_212	$mol:m1	@atom:CA	0	56.489105000	7.090000000	0.000000000
$atom:CA_213	$mol:m1	@atom:CA	0	58.945152000	4.254000000	0.000000000
$atom:CA_214	$mol:m1	@atom:CA	0	57.717129000	4.963000000	0.000000000
$atom:CA_215	$mol:m1	@atom:CA	0	57.717129000	6.381000000	0.000000000
$atom:CA_216	$mol:m1	@atom:CA	0	58.945152000	7.090000000	0.000000000
$atom:CA_217	$mol:m1	@atom:CA	0	61.401199000	4.254000000	0.000000000
$atom:CA_218	$mol:m1	@atom:CA	0	60.173176000	4.963000000	0.000000000
$atom:CA_219	$mol:m1	@atom:CA	0	60.173176000	6.381000000	0.000000000
$atom:CA_220	$mol:m1	@atom:CA	0	61.401199000	7.090000000	0.000000000
$atom:CA_221	$mol:m1	@atom:CA	0	63.857250000	4.254000000	0.000000000
$atom:CA_222	$mol:m1	@atom:CA	0	62.629227000	4.963000000	0.000000000
$atom:CA_223	$mol:m1	@atom:CA	0	62.629227000	6.381000000	0.000000000
$atom:CA_224	$mol:m1	@atom:CA	0	63.857250000	7.090000000	0.000000000
$atom:CA_225	$mol:m1	@atom:CA	0	66.313293000	4.254000000	0.000000000
$atom:CA_226	$mol:m1	@atom:CA	0	65.085274000	4.963000000	0.000000000
$atom:CA_227	$mol:m1	@atom:CA	0	65.085274000	6.381000000	0.000000000
$atom:CA_228	$mol:m1	@atom:CA	0	66.313293000	7.090000000	0.000000000
$atom:CA_229	$mol:m1	@atom:CA	0	68.769348000	4.254000000	0.000000000
$atom:CA_230	$mol:m1	@atom:CA	0	67.541321000	4.963000000	0.000000000
$atom:CA_231	$mol:m1	@atom:CA	0	67.541321000	6.381000000	0.000000000
$atom:CA_232	$mol:m1	@atom:CA	0	68.769348000	7.090000000	0.000000000
$atom:CA_233	$mol:m1	@atom:CA	0	0.000000000	8.508000000	0.000000000
$atom:CA_234	$mol:m1	@atom:CA	0	-1.228024000	9.217000000	0.000000000
$atom:CA_235	$mol:m1	@atom:CA	0	-1.228024000	10.635000000	0.000000000
$atom:CA_236	$mol:m1	@atom:CA	0	0.000000000	11.344000000	0.000000000
$atom:CA_237	$mol:m1	@atom:CA	0	2.456048000	8.508000000	0.000000000
$atom:CA_238	$mol:m1	@atom:CA	0	1.228024000	9.217000000	0.000000000
$atom:CA_239	$mol:m1	@atom:CA	0	1.228024000	10.635000000	0.000000000
$atom:CA_240	$mol:m1	@atom:CA	0	2.456048000	11.344000000	0.000000000
$atom:CA_241	$mol:m1	@atom:CA	0	4.912096000	8.508000000	0.000000000
$atom:CA_242	$mol:m1	@atom:CA	0	3.684072000	9.217000000	0.000000000
$atom:CA_243	$mol:m1	@atom:CA	0	3.684072000	10.635000000	0.000000000
$atom:CA_244	$mol:m1	@atom:CA	0	4.912096000	11.344000000	0.000000000
$atom:CA_245	$mol:m1	@atom:CA	0	7.368144000	8.508000000	0.000000000
$atom:CA_246	$mol:m1	@atom:CA	0	6.140120000	9.217000000	0.000000000
$atom:CA_247	$mol:m1	@atom:CA	0	6.140120000	10.635000000	0.000000000
$atom:CA_248	$mol:m1	@atom:CA	0	7.368144000	11.344000000	0.000000000
$atom:CA_249	$mol:m1	@atom:CA	0	9.824192000	8.508000000	0.000000000
$atom:CA_250	$mol:m1	@atom:CA	0	8.596169000	9.217000000	0.000000000
$atom:CA_251	$mol:m1	@atom:CA	0	8.596169000	10.635000000	0.000000000
$atom:CA_252	$mol:m1	@atom:CA	0	9.824192000	11.344000000	0.000000000
$atom:CA_253	$mol:m1	@atom:CA	0	12.280240000	8.508000000	0.000000000
$atom:CA_254	$mol:m1	@atom:CA	0	11.052217000	9.217000000	0.000000000
$atom:CA_255	$mol:m1	@atom:CA	0	11.052217000	10.635000000	0.000000000
$atom:CA_256	$mol:m1	@atom:CA	0	12.280240000	11.344000000	0.000000000
$atom:CA_257	$mol:m1	@atom:CA	0	14.736288000	8.508000000	0.000000000
$atom:CA_258	$mol:m1	@atom:CA	0	13.508265000	9.217000000	0.000000000
$atom:CA_259	$mol:m1	@atom:CA	0	13.508265000	10.635000000	0.000000000
$atom:CA_260	$mol:m1	@atom:CA	0	14.736288000	11.344000000	0.000000000
$atom:CA_261	$mol:m1	@atom:CA	0	17.192337000	8.508000000	0.000000000
$atom:CA_262	$mol:m1	@atom:CA	0	15.964313000	9.217000000	0.000000000
$atom:CA_263	$mol:m1	@atom:CA	0	15.964313000	10.635000000	0.000000000
$atom:CA_264	$mol:m1	@atom:CA	0	17.192337000	11.344000000	0.000000000
$atom:CA_265	$mol:m1	@atom:CA	0	19.648384000	8.508000000	0.000000000
$atom:CA_266	$mol:m1	@atom:CA	0	18.420361000	9.217000000	0.000000000
$atom:CA_267	$mol:m1	@atom:CA	0	18.420361000	10.635000000	0.000000000
$atom:CA_268	$mol:m1	@atom:CA	0	19.648384000	11.344000000	0.000000000
$atom:CA_269	$mol:m1	@atom:CA	0	22.104433000	8.508000000	0.000000000
$atom:CA_270	$mol:m1	@atom:CA	0	20.876408000	9.217000000	0.000000000
$atom:CA_271	$mol:m1	@atom:CA	0	20.876408000	10.635000000	0.000000000
$atom:CA_272	$mol:m1	@atom:CA	0	22.104433000	11.344000000	0.000000000
$atom:CA_273	$mol:m1	@atom:CA	0	24.560480000	8.508000000	0.000000000
$atom:CA_274	$mol:m1	@atom:CA	0	23.332457000	9.217000000	0.000000000
$atom:CA_275	$mol:m1	@atom:CA	0	23.332457000	10.635000000	0.000000000
$atom:CA_276	$mol:m1	@atom:CA	0	24.560480000	11.344000000	0.000000000
$atom:CA_277	$mol:m1	@atom:CA	0	27.016529000	8.508000000	0.000000000
$atom:CA_278	$mol:m1	@atom:CA	0	25.788504000	9.217000000	0.000000000
$atom:CA_279	$mol:m1	@atom:CA	0	25.788504000	10.635000000	0.000000000
$atom:CA_280	$mol:m1	@atom:CA	0	27.016529000	11.344000000	0.000000000
$atom:CA_281	$mol:m1	@atom:CA	0	29.472576000	8.508000000	0.000000000
$atom:CA_282	$mol:m1	@atom:CA	0	28.244553000	9.217000000	0.000000000
$atom:CA_283	$mol:m1	@atom:CA	0	28.244553000	10.635000000	0.000000000
$atom:CA_284	$mol:m1	@atom:CA	0	29.472576000	11.344000000	0.000000000
$atom:CA_285	$mol:m1	@atom:CA	0	31.928625000	8.508000000	0.000000000
$atom:CA_286	$mol:m1	@atom:CA	0	30.700600000	9.217000000	0.000000000
$atom:CA_287	$mol:m1	@atom:CA	0	30.700600000	10.635000000	0.000000000
$atom:CA_288	$mol:m1	@atom:CA	0	31.928625000	11.344000000	0.000000000
$atom:CA_289	$mol:m1	@atom:CA	0	34.384674000	8.508000000	0.000000000
$atom:CA_290	$mol:m1	@atom:CA	0	33.156647000	9.217000000	0.000000000
$atom:CA_291	$mol:m1	@atom:CA	0	33.156647000	10.635000000	0.000000000
$atom:CA_292	$mol:m1	@atom:CA	0	34.384674000	11.344000000	0.000000000
$atom:CA_293	$mol:m1	@atom:CA	0	36.840721000	8.508000000	0.000000000
$atom:CA_294	$mol:m1	@atom:CA	0	35.612698000	9.217000000	0.000000000
$atom:CA_295	$mol:m1	@atom:CA	0	35.612698000	10.635000000	0.000000000
$atom:CA_296	$mol:m1	@atom:CA	0	36.840721000	11.344000000	0.000000000
$atom:CA_297	$mol:m1	@atom:CA	0	39.296768000	8.508000000	0.000000000
$atom:CA_298	$mol:m1	@atom:CA	0	38.068745000	9.217000000	0.000000000
$atom:CA_299	$mol:m1	@atom:CA	0	38.068745000	10.635000000	0.000000000
$atom:CA_300	$mol:m1	@atom:CA	0	39.296768000	11.344000000	0.000000000
$atom:CA_301	$mol:m1	@atom:CA	0	41.752815000	8.508000000	0.000000000
$atom:CA_302	$mol:m1	@atom:CA	0	40.524792000	9.217000000	0.000000000
$atom:CA_303	$mol:m1	@atom:CA	0	40.524792000	10.635000000	0.000000000
$atom:CA_304	$mol:m1	@atom:CA	0	41.752815000	11.344000000	0.000000000
$atom:CA_305	$mol:m1	@atom:CA	0	44.208866000	8.508000000	0.000000000
$atom:CA_306	$mol:m1	@atom:CA	0	42.980843000	9.217000000	0.000000000
$atom:CA_307	$mol:m1	@atom:CA	0	42.980843000	10.635000000	0.000000000
$atom:CA_308	$mol:m1	@atom:CA	0	44.208866000	11.344000000	0.000000000
$atom:CA_309	$mol:m1	@atom:CA	0	46.664913000	8.508000000	0.000000000
$atom:CA_310	$mol:m1	@atom:CA	0	45.436890000	9.217000000	0.000000000
$atom:CA_311	$mol:m1	@atom:CA	0	45.436890000	10.635000000	0.000000000
$atom:CA_312	$mol:m1	@atom:CA	0	46.664913000	11.344000000	0.000000000
$atom:CA_313	$mol:m1	@atom:CA	0	49.120960000	8.508000000	0.000000000
$atom:CA_314	$mol:m1	@atom:CA	0	47.892937000	9.217000000	0.000000000
$atom:CA_315	$mol:m1	@atom:CA	0	47.892937000	10.635000000	0.000000000
$atom:CA_316	$mol:m1	@atom:CA	0	49.120960000	11.344000000	0.000000000
$atom:CA_317	$mol:m1	@atom:CA	0	51.577007000	8.508000000	0.000000000
$atom:CA_318	$mol:m1	@atom:CA	0	50.348984000	9.217000000	0.000000000
$atom:CA_319	$mol:m1	@atom:CA	0	50.348984000	10.635000000	0.000000000
$atom:CA_320	$mol:m1	@atom:CA	0	51.577007000	11.344000000	0.000000000
$atom:CA_321	$mol:m1	@atom:CA	0	54.033058000	8.508000000	0.000000000
$atom:CA_322	$mol:m1	@atom:CA	0	52.805035000	9.217000000	0.000000000
$atom:CA_323	$mol:m1	@atom:CA	0	52.805035000	10.635000000	0.000000000
$atom:CA_324	$mol:m1	@atom:CA	0	54.033058000	11.344000000	0.000000000
$atom:CA_325	$mol:m1	@atom:CA	0	56.489105000	8.508000000	0.000000000
$atom:CA_326	$mol:m1	@atom:CA	0	55.261082000	9.217000000	0.000000000
$atom:CA_327	$mol:m1	@atom:CA	0	55.261082000	10.635000000	0.000000000
$atom:CA_328	$mol:m1	@atom:CA	0	56.489105000	11.344000000	0.000000000
$atom:CA_329	$mol:m1	@atom:CA	0	58.945152000	8.508000000	0.000000000
$atom:CA_330	$mol:m1	@atom:CA	0	57.717129000	9.217000000	0.000000000
$atom:CA_331	$mol:m1	@atom:CA	0	57.717129000	10.635000000	0.000000000
$atom:CA_332	$mol:m1	@atom:CA	0	58.945152000	11.344000000	0.000000000
$atom:CA_333	$mol:m1	@atom:CA	0	61.401199000	8.508000000	0.000000000
$atom:CA_334	$mol:m1	@atom:CA	0	60.173176000	9.217000000	0.000000000
$atom:CA_335	$mol:m1	@atom:CA	0	60.173176000	10.635000000	0.000000000
$atom:CA_336	$mol:m1	@atom:CA	0	61.401199000	11.344000000	0.000000000
$atom:CA_337	$mol:m1	@atom:CA	0	63.857250000	8.508000000	0.000000000
$atom:CA_338	$mol:m1	@atom:CA	0	62.629227000	9.217000000	0.000000000
$atom:CA_339	$mol:m1	@atom:CA	0	62.629227000	10.635000000	0.000000000
$atom:CA_340	$mol:m1	@atom:CA	0	63.857250000	11.344000000	0.000000000
$atom:CA_341	$mol:m1	@atom:CA	0	66.313293000	8.508000000	0.000000000
$atom:CA_342	$mol:m1	@atom:CA	0	65.085274000	9.217000000	0.000000000
$atom:CA_343	$mol:m1	@atom:CA	0	65.085274000	10.635000000	0.000000000
$atom:CA_344	$mol:m1	@atom:CA	0	66.313293000	11.344000000	0.000000000
$atom:CA_345	$mol:m1	@atom:CA	0	68.769348000	8.508000000	0.000000000
$atom:CA_346	$mol:m1	@atom:CA	0	67.541321000	9.217000000	0.000000000
$atom:CA_347	$mol:m1	@atom:CA	0	67.541321000	10.635000000	0.000000000
$atom:CA_348	$mol:m1	@atom:CA	0	68.769348000	11.344000000	0.000000000
$atom:CA_349	$mol:m1	@atom:CA	0	0.000000000	12.762000000	0.000000000
$atom:CA_350	$mol:m1	@atom:CA	0	-1.228024000	13.471000000	0.000000000
$atom:CA_351	$mol:m1	@atom:CA	0	-1.228024000	14.889000000	0.000000000
$atom:CA_352	$mol:m1	@atom:CA	0	0.000000000	15.598000000	0.000000000
$atom:CA_353	$mol:m1	@atom:CA	0	2.456048000	12.762000000	0.000000000
$atom:CA_354	$mol:m1	@atom:CA	0	1.228024000	13.471000000	0.000000000
$atom:CA_355	$mol:m1	@atom:CA	0	1.228024000	14.889000000	0.000000000
$atom:CA_356	$mol:m1	@atom:CA	0	2.456048000	15.598000000	0.000000000
$atom:CA_357	$mol:m1	@atom:CA	0	4.912096000	12.762000000	0.000000000
$atom:CA_358	$mol:m1	@atom:CA	0	3.684072000	13.471000000	0.000000000
$atom:CA_359	$mol:m1	@atom:CA	0	3.684072000	14.889000000	0.000000000
$atom:CA_360	$mol:m1	@atom:CA	0	4.912096000	15.598000000	0.000000000
$atom:CA_361	$mol:m1	@atom:CA	0	7.368144000	12.762000000	0.000000000
$atom:CA_362	$mol:m1	@atom:CA	0	6.140120000	13.471000000	0.000000000
$atom:CA_363	$mol:m1	@atom:CA	0	6.140120000	14.889000000	0.000000000
$atom:CA_364	$mol:m1	@atom:CA	0	7.368144000	15.598000000	0.000000000
$atom:CA_365	$mol:m1	@atom:CA	0	9.824192000	12.762000000	0.000000000
$atom:CA_366	$mol:m1	@atom:CA	0	8.596169000	13.471000000	0.000000000
$atom:CA_367	$mol:m1	@atom:CA	0	8.596169000	14.889000000	0.000000000
$atom:CA_368	$mol:m1	@atom:CA	0	9.824192000	15.598000000	0.000000000
$atom:CA_369	$mol:m1	@atom:CA	0	12.280240000	12.762000000	0.000000000
$atom:CA_370	$mol:m1	@atom:CA	0	11.052217000	13.471000000	0.000000000
$atom:CA_371	$mol:m1	@atom:CA	0	11.052217000	14.889000000	0.000000000
$atom:CA_372	$mol:m1	@atom:CA	0	12.280240000	15.598000000	0.000000000
$atom:CA_373	$mol:m1	@atom:CA	0	14.736288000	12.762000000	0.000000000
$atom:CA_374	$mol:m1	@atom:CA	0	13.508265000	13.471000000	0.000000000
$atom:CA_375	$mol:m1	@atom:CA	0	13.508265000	14.889000000	0.000000000
$atom:CA_376	$mol:m1	@atom:CA	0	14.736288000	15.598000000	0.000000000
$atom:CA_377	$mol:m1	@atom:CA	0	17.192337000	12.762000000	0.000000000
$atom:CA_378	$mol:m1	@atom:CA	0	15.964313000	13.471000000	0.000000000
$atom:CA_379	$mol:m1	@atom:CA	0	15.964313000	14.889000000	0.000000000
$atom:CA_380	$mol:m1	@atom:CA	0	17.192337000	15.598000000	0.000000000
$atom:CA_381	$mol:m1	@atom:CA	0	19.648384000	12.762000000	0.000000000
$atom:CA_382	$mol:m1	@atom:CA	0	18.420361000	13.471000000	0.000000000
$atom:CA_383	$mol:m1	@atom:CA	0	18.420361000	14.889000000	0.000000000
$atom:CA_384	$mol:m1	@atom:CA	0	19.648384000	15.598000000	0.000000000
$atom:CA_385	$mol:m1	@atom:CA	0	22.104433000	12.762000000	0.000000000
$atom:CA_386	$mol:m1	@atom:CA	0	20.876408000	13.471000000	0.000000000
$atom:CA_387	$mol:m1	@atom:CA	0	20.876408000	14.889000000	0.000000000
$atom:CA_388	$mol:m1	@atom:CA	0	22.104433000	15.598000000	0.000000000
$atom:CA_389	$mol:m1	@atom:CA	0	24.560480000	12.762000000	0.000000000
$atom:CA_390	$mol:m1	@atom:CA	0	23.332457000	13.471000000	0.000000000
$atom:CA_391	$mol:m1	@atom:CA	0	23.332457000	14.889000000	0.000000000
$atom:CA_392	$mol:m1	@atom:CA	0	24.560480000	15.598000000	0.000000000
$atom:CA_393	$mol:m1	@atom:CA	0	27.016529000	12.762000000	0.000000000
$atom:CA_394	$mol:m1	@atom:CA	0	25.788504000	13.471000000	0.000000000
$atom:CA_395	$mol:m1	@atom:CA	0	25.788504000	14.889000000	0.000000000
$atom:CA_396	$mol:m1	@atom:CA	0	27.016529000	15.598000000	0.000000000
$atom:CA_397	$mol:m1	@atom:CA	0	29.472576000	12.762000000	0.000000000
$atom:CA_398	$mol:m1	@atom:CA	0	28.244553000	13.471000000	0.000000000
$atom:CA_399	$mol:m1	@atom:CA	0	28.244553000	14.889000000	0.000000000
$atom:CA_400	$mol:m1	@atom:CA	0	29.472576000	15.598000000	0.000000000
$atom:CA_401	$mol:m1	@atom:CA	0	31.928625000	12.762000000	0.000000000
$atom:CA_402	$mol:m1	@atom:CA	0	30.700600000	13.471000000	0.000000000
$atom:CA_403	$mol:m1	@atom:CA	0	30.700600000	14.889000000	0.000000000
$atom:CA_404	$mol:m1	@atom:CA	0	31.928625000	15.598000000	0.000000000
$atom:CA_405	$mol:m1	@atom:CA	0	34.384674000	12.762000000	0.000000000
$atom:CA_406	$mol:m1	@atom:CA	0	33.156647000	13.471000000	0.000000000
$atom:CA_407	$mol:m1	@atom:CA	0	33.156647000	14.889000000	0.000000000
$atom:CA_408	$mol:m1	@atom:CA	0	34.384674000	15.598000000	0.000000000
$atom:CA_409	$mol:m1	@atom:CA	0	36.840721000	12.762000000	0.000000000
$atom:CA_410	$mol:m1	@atom:CA	0	35.612698000	13.471000000	0.000000000
$atom:CA_411	$mol:m1	@atom:CA	0	35.612698000	14.889000000	0.000000000
$atom:CA_412	$mol:m1	@atom:CA	0	36.840721000	15.598000000	0.000000000
$atom:CA_413	$mol:m1	@atom:CA	0	39.296768000	12.762000000	0.000000000
$atom:CA_414	$mol:m1	@atom:CA	0	38.068745000	13.471000000	0.000000000
$atom:CA_415	$mol:m1	@atom:CA	0	38.068745000	14.889000000	0.000000000
$atom:CA_416	$mol:m1	@atom:CA	0	39.296768000	15.598000000	0.000000000
$atom:CA_417	$mol:m1	@atom:CA	0	41.752815000	12.762000000	0.000000000
$atom:CA_418	$mol:m1	@atom:CA	0	40.524792000	13.471000000	0.000000000
$atom:CA_419	$mol:m1	@atom:CA	0	40.524792000	14.889000000	0.000000000
$atom:CA_420	$mol:m1	@atom:CA	0	41.752815000	15.598000000	0.000000000
$atom:CA_421	$mol:m1	@atom:CA	0	44.208866000	12.762000000	0.000000000
$atom:CA_422	$mol:m1	@atom:CA	0	42.980843000	13.471000000	0.000000000
$atom:CA_423	$mol:m1	@atom:CA	0	42.980843000	14.889000000	0.000000000
$atom:CA_424	$mol:m1	@atom:CA	0	44.208866000	15.598000000	0.000000000
$atom:CA_425	$mol:m1	@atom:CA	0	46.664913000	12.762000000	0.000000000
$atom:CA_426	$mol:m1	@atom:CA	0	45.436890000	13.471000000	0.000000000
$atom:CA_427	$mol:m1	@atom:CA	0	45.436890000	14.889000000	0.000000000
$atom:CA_428	$mol:m1	@atom:CA	0	46.664913000	15.598000000	0.000000000
$atom:CA_429	$mol:m1	@atom:CA	0	49.120960000	12.762000000	0.000000000